p cnf 30 26
c p distribution  0.875 0.125
c p distribution  0.875 0.125
c p distribution  0.875 0.125
c p distribution  0.875 0.125
c p distribution  0.875 0.125
c p distribution  0.875 0.125
c p distribution  0.875 0.125
c p distribution  0.875 0.125
c p distribution  0.875 0.125
c p distribution  0.875 0.125
c p distribution  0.875 0.125
c p distribution  0.875 0.125
25 0
-27 0
28 -25 -1 0
25 -28 -1 0
28 -25 -3 0
25 -28 -3 0
28 -26 -5 0
26 -28 -5 0
27 -26 -7 0
26 -27 -7 0
28 -25 -9 0
25 -28 -9 0
28 -25 -11 0
25 -28 -11 0
28 -25 -13 0
25 -28 -13 0
28 -25 -15 0
25 -28 -15 0
29 -30 -17 0
30 -29 -17 0
28 -25 -19 0
25 -28 -19 0
29 -25 -21 0
25 -29 -21 0
29 -26 -23 0
26 -29 -23 0

